(set-option :produce-models true); benchmark generated from python API
(set-info :status unknown)
(declare-fun l_1_0_9 () Real)
(declare-fun l_1_0_8 () Real)
(declare-fun l_1_0_7 () Real)
(declare-fun l_1_0_6 () Real)
(declare-fun l_1_0_5 () Real)
(declare-fun l_1_0_4 () Real)
(declare-fun l_1_0_3 () Real)
(declare-fun l_1_0_2 () Real)
(declare-fun l_1_0_1 () Real)
(declare-fun _a_0_ () Real)
(declare-fun l_1_0_10 () Real)
(declare-fun _a_1_ () Real)
(declare-fun l_1_0_11 () Real)
(declare-fun _a_2_ () Real)
(declare-fun l_1_1_16 () Real)
(declare-fun l_1_1_15 () Real)
(declare-fun l_1_1_7 () Real)
(declare-fun l_1_1_5 () Real)
(declare-fun l_1_1_4 () Real)
(declare-fun l_1_1_13 () Real)
(declare-fun l_1_1_12 () Real)
(declare-fun l_1_1_11 () Real)
(declare-fun l_1_1_17 () Real)
(declare-fun l_1_1_9 () Real)
(declare-fun l_1_1_8 () Real)
(declare-fun l_1_1_6 () Real)
(declare-fun l_1_1_3 () Real)
(declare-fun l_1_1_2 () Real)
(declare-fun l_1_1_14 () Real)
(declare-fun l_1_1_10 () Real)
(declare-fun l_1_1_1 () Real)
(declare-fun l_1_2_7 () Real)
(declare-fun l_1_2_5 () Real)
(declare-fun l_1_2_4 () Real)
(declare-fun l_1_2_3 () Real)
(declare-fun l_1_2_2 () Real)
(declare-fun l_1_2_15 () Real)
(declare-fun l_1_2_14 () Real)
(declare-fun l_1_2_12 () Real)
(declare-fun l_1_2_10 () Real)
(declare-fun l_1_2_1 () Real)
(declare-fun l_1_2_9 () Real)
(declare-fun l_1_2_8 () Real)
(declare-fun l_1_2_6 () Real)
(declare-fun l_1_2_13 () Real)
(declare-fun l_1_2_11 () Real)
(declare-fun l_1_2_16 () Real)
(declare-fun l_1_2_17 () Real)
(assert
 (let ((?x433 (* l_1_0_9 l_1_0_9)))
 (let ((?x28 (- (- (- (- _a_0_ l_1_0_1) l_1_0_2) l_1_0_3) (* 1.0 l_1_0_4))))
 (let ((?x23 (- (- (- ?x28 (* 1.0 l_1_0_5)) (* 1.0 l_1_0_6)) (* 1.0 l_1_0_7))))
 (= (- (- ?x23 l_1_0_8) ?x433) 0.0)))))
(assert
 (= (- _a_1_ (* (* 2.0 l_1_0_10) l_1_0_9)) 0.0))
(assert
 (let ((?x296 (* 2.0 l_1_0_7)))
 (let ((?x293 (+ (- (- _a_2_ (* l_1_0_10 l_1_0_10)) (* l_1_0_11 l_1_0_11)) l_1_0_4)))
 (= (+ (+ (+ ?x293 l_1_0_5) l_1_0_6) ?x296) 0.0))))
(assert
 (= (- l_1_0_7) 0.0))
(assert
 (>= l_1_0_1 0.0))
(assert
 (>= l_1_0_2 0.0))
(assert
 (>= l_1_0_3 0.0))
(assert
 (>= l_1_0_4 0.0))
(assert
 (>= l_1_0_5 0.0))
(assert
 (>= l_1_0_6 0.0))
(assert
 (>= l_1_0_7 0.0))
(assert
 (>= l_1_0_8 0.0))
(assert
 (>= l_1_0_9 0.0))
(assert
 (>= l_1_0_11 0.0))
(assert
 (let ((?x160 (* _a_1_ l_1_1_4)))
 (let ((?x158 (* _a_1_ l_1_1_13)))
 (let ((?x261 (* _a_1_ l_1_1_12)))
 (let ((?x251 (- (- (- (* (* (* (- 2.0) _a_0_) _a_1_) l_1_1_11) ?x261) ?x158) ?x160)))
 (let ((?x234 (+ (+ ?x251 (* (* 1.0 _a_1_) l_1_1_5)) (* (* 1.0 _a_1_) l_1_1_7))))
 (= (+ (- ?x234 (* (* 2.0 l_1_1_15) l_1_1_16)) 8.0) 0.0)))))))
(assert
 (let ((?x10 (* l_1_1_17 l_1_1_17)))
 (let ((?x11 (* l_1_1_16 l_1_1_16)))
 (let ((?x126 (* _a_2_ l_1_1_4)))
 (let ((?x130 (+ (- (- (* (- _a_2_) l_1_1_12) (* _a_2_ l_1_1_13)) ?x126) (* (* 1.0 _a_2_) l_1_1_5))))
 (let ((?x122 (- (+ ?x130 (* (* 1.0 _a_2_) l_1_1_7)) (* l_1_1_11 (+ (* (* 2.0 _a_0_) _a_2_) (* _a_1_ _a_1_))))))
 (= (- (- (- ?x122 ?x11) ?x10) 1.0) 0.0)))))))
(assert
 (let ((?x401 (* l_1_1_15 l_1_1_15)))
 (let ((?x305 (* _a_0_ l_1_1_4)))
 (let ((?x380 (+ (- (- (* (- _a_0_) l_1_1_12) (* _a_0_ l_1_1_13)) ?x305) (* (* 1.0 _a_0_) l_1_1_5))))
 (let ((?x389 (- (- (+ ?x380 (* (* 1.0 _a_0_) l_1_1_7)) l_1_1_1) (* 1.0 l_1_1_10))))
 (let ((?x407 (- (- (- (- ?x389 (* (* l_1_1_11 _a_0_) _a_0_)) l_1_1_14) ?x401) l_1_1_2)))
 (let ((?x387 (+ (- (+ (+ ?x407 (* 1.0 l_1_1_3)) (* 1.0 l_1_1_6)) l_1_1_8) (* 1.0 l_1_1_9))))
 (= (- ?x387 15.0) 0.0))))))))
(assert
 (= (* (* (* (- 2.0) _a_1_) _a_2_) l_1_1_11) 0.0))
(assert
 (= (* (* (- l_1_1_11) _a_2_) _a_2_) 0.0))
(assert
 (>= l_1_1_1 0.0))
(assert
 (>= l_1_1_2 0.0))
(assert
 (>= l_1_1_3 0.0))
(assert
 (>= l_1_1_4 0.0))
(assert
 (>= l_1_1_5 0.0))
(assert
 (>= l_1_1_6 0.0))
(assert
 (>= l_1_1_7 0.0))
(assert
 (>= l_1_1_8 0.0))
(assert
 (>= l_1_1_9 0.0))
(assert
 (>= l_1_1_10 0.0))
(assert
 (>= l_1_1_11 0.0))
(assert
 (>= l_1_1_12 0.0))
(assert
 (>= l_1_1_13 0.0))
(assert
 (>= l_1_1_14 0.0))
(assert
 (>= l_1_1_15 0.0))
(assert
 (>= l_1_1_17 0.0))
(assert
 (let ((?x316 (* l_1_2_15 l_1_2_15)))
 (let ((?x227 (* _a_0_ l_1_2_9)))
 (let ((?x258 (* _a_0_ l_1_2_8)))
 (let ((?x256 (* _a_0_ l_1_2_6)))
 (let ((?x255 (- (* (* (- 1.0) _a_0_) l_1_2_11) (* (* 1.0 _a_0_) l_1_2_13))))
 (let ((?x199 (- (+ (- (- (- ?x255 ?x256) ?x258) ?x227) _a_0_) (* 1.0 l_1_2_1))))
 (let ((?x320 (- (- (- ?x199 (* 1.0 l_1_2_10)) (* 1.0 l_1_2_12)) l_1_2_14)))
 (let ((?x351 (- (- (- (- ?x320 ?x316) l_1_2_2) l_1_2_3) (* (* l_1_2_4 _a_0_) _a_0_))))
 (= (- (- ?x351 l_1_2_5) (* 1.0 l_1_2_7)) 0.0))))))))))
(assert
 (let ((?x463 (* (/ 124.0 125.0) _a_1_)))
 (let ((?x460 (* _a_1_ l_1_2_9)))
 (let ((?x458 (* _a_1_ l_1_2_8)))
 (let ((?x456 (* _a_1_ l_1_2_6)))
 (let ((?x453 (- (* (* (* (- 2.0) _a_0_) _a_1_) l_1_2_4) (* (* 1.0 _a_1_) l_1_2_11))))
 (let ((?x461 (- (- (- (- ?x453 (* (* 1.0 _a_1_) l_1_2_13)) ?x456) ?x458) ?x460)))
 (= (- (+ ?x461 ?x463) (* (* 2.0 l_1_2_15) l_1_2_16)) 0.0))))))))
(assert
 (let ((?x503 (+ (- (* (* (* (- 2.0) _a_1_) _a_2_) l_1_2_4) (* (/ 1.0 1000.0) _a_1_)) (* (/ 186.0 15625.0) _a_2_))))
 (= ?x503 0.0)))
(assert
 (let ((?x536 (* l_1_2_17 l_1_2_17)))
 (let ((?x534 (* l_1_2_16 l_1_2_16)))
 (let ((?x532 (* (/ 15376.0 15625.0) _a_2_)))
 (let ((?x529 (* _a_2_ l_1_2_9)))
 (let ((?x527 (* _a_2_ l_1_2_8)))
 (let ((?x525 (* _a_2_ l_1_2_6)))
 (let ((?x524 (- (- (* (/ 3.0 500.0) _a_1_) (* (* 1.0 _a_2_) l_1_2_11)) (* (* 1.0 _a_2_) l_1_2_13))))
 (let ((?x539 (- (- (- (+ (- (- (- ?x524 ?x525) ?x527) ?x529) ?x532) ?x534) ?x536) (* l_1_2_4 (+ (* (* 2.0 _a_0_) _a_2_) (* _a_1_ _a_1_))))))
 (= ?x539 0.0))))))))))
(assert
 (= (- (* (- (/ 487.0 250000.0)) _a_2_) (* (* l_1_2_4 _a_2_) _a_2_)) 0.0))
(assert
 (= (* (/ 1.0 1000000.0) _a_2_) 0.0))
(assert
 (= (* (- (/ 3.0 250000.0)) _a_2_) 0.0))
(assert
 (>= l_1_2_1 0.0))
(assert
 (>= l_1_2_2 0.0))
(assert
 (>= l_1_2_3 0.0))
(assert
 (>= l_1_2_4 0.0))
(assert
 (>= l_1_2_5 0.0))
(assert
 (>= l_1_2_6 0.0))
(assert
 (>= l_1_2_7 0.0))
(assert
 (>= l_1_2_8 0.0))
(assert
 (>= l_1_2_9 0.0))
(assert
 (>= l_1_2_10 0.0))
(assert
 (>= l_1_2_11 0.0))
(assert
 (>= l_1_2_12 0.0))
(assert
 (>= l_1_2_13 0.0))
(assert
 (>= l_1_2_14 0.0))
(assert
 (>= l_1_2_15 0.0))
(assert
 (>= l_1_2_17 0.0))
(check-sat)
(get-model)